49,44
42,50
61,68
28,36
53,48
76,80
77,86
23,24
34,25
47,52
56,48
73,76
33,33
82,88
87,85
81,87
48,57
97,88
58,48
80,81
23,20
84,90
53,59
82,72
84,80
42,34
37,35
41,35
21,11
74,64
74,74
47,49
77,85
14,23
44,47
94,97
42,39
18,9
71,61
34,36
12,19
74,81
96,100
52,49
46,42
66,71
65,59
43,51
88,85
97,100

156
161
119
125
144
124
136
168
130
